50, 619
50, 50
24, 24
48, 48
44, 44
32, 32
30, 30
48, 48
22, 22
38, 38
22, 22
12, 12
10, 10
14, 14
18, 18
38, 38
6, 6
38, 38
6, 6
26, 26
38, 38
34, 34
8, 8
6, 6
14, 14
20, 20
34, 34
40, 40
44, 44
36, 36
4, 4
8, 8
14, 14
28, 28
24, 24
4, 4
2, 2
38, 38
24, 24
44, 44
26, 26
8, 8
18, 18
34, 34
38, 38
6, 6
12, 12
26, 26
50, 50
2, 2
28, 28
